0.00/0.00	c Loading GNN prediction file...
0.00/0.00	c GNN prediction file loaded
0.00/0.00	o 47 0
0.00/0.00	o 44 0
0.00/0.00	o 41 0
0.00/0.00	o 38 0
0.00/0.00	o 36 0
0.00/0.00	o 35 0
0.00/0.00	o 34 0
0.00/0.00	o 33 0
0.00/0.00	o 32 0
0.00/0.00	o 31 0
0.00/0.00	o 30 0
0.00/0.00	o 29 0
0.00/0.00	o 28 0
0.00/0.00	o 27 0
0.00/0.00	o 26 0
0.00/0.00	o 25 0
0.00/0.00	o 24 0
0.00/0.00	o 23 0
0.00/0.00	o 22 0
0.00/0.00	o 21 0
0.00/0.00	o 20 0
0.00/0.00	o 19 0
0.00/0.00	o 18 0
0.00/0.00	o 17 0
0.00/0.00	o 16 0
0.00/0.00	o 15 0
49.00/49.01	c verified
49.00/49.01	v 001110100101101100000111010100111100110011101011010010111000110011110011111000000001010011000011011100101101110010101001001001000100010101010111010001010100001110111101110
